zaligvinder/models/DRE/data526/337.smt2
(declare-fun x () String)

(assert (str.in.re x (re.*  (re.union  (str.to.re "\x4e01") (re.union  (str.to.re "\x4e02") (re.union  (str.to.re "\x4e03") (re.union  (str.to.re "\x4e04") (re.union  (str.to.re "\x4e05") (re.union  (str.to.re "\x4e06") (re.union  (str.to.re "\x4e07") (re.union  (str.to.re "\x4e08") (re.union  (str.to.re "\x4e09") (re.union  (str.to.re "\x4e0a") (re.union  (str.to.re "\x4e0b") (re.union  (str.to.re "\x4e0c") (re.union  (str.to.re "\x4e0d") (re.union  (str.to.re "\x4e0e") (re.union  (str.to.re "\x4e0f") (re.union  (str.to.re "\x4e10") (re.union  (str.to.re "\x4e11") (re.union  (str.to.re "\x4e12") (re.union  (str.to.re "\x4e13") (re.union  (str.to.re "\x4e14") (re.union  (str.to.re "\x4e15") (re.union  (str.to.re "\x4e16") (re.union  (str.to.re "\x4e17") (re.union  (str.to.re "\x4e18") (re.union  (str.to.re "\x4e19") (re.union  (str.to.re "\x4e1a") (re.union  (str.to.re "\x4e1b") (re.union  (str.to.re "\x4e1c") (re.union  (str.to.re "\x4e1d") (re.union  (str.to.re "\x4e1e") (re.union  (str.to.re "\x4e1f") (re.union  (str.to.re "\x4e20") (re.union  (str.to.re "\x4e21") (re.union  (str.to.re "\x4e22") (re.union  (str.to.re "\x4e23") (re.union  (str.to.re "\x4e24") (re.union  (str.to.re "\x4e25") (re.union  (str.to.re "\x4e26") (re.union  (str.to.re "\x4e27") (re.union  (str.to.re "\x4e28") (re.union  (str.to.re "\x4e29") (re.union  (str.to.re "\x4e2a") (re.union  (str.to.re "\x4e2b") (re.union  (str.to.re "\x4e2c") (re.union  (str.to.re "\x4e2d") (re.union  (str.to.re "\x4e2e") (re.union  (str.to.re "\x4e2f") (re.union  (str.to.re "\x4e30") (re.union  (str.to.re "\x4e31") (re.union  (str.to.re "\x4e32") (re.union  (str.to.re "\x4e33") (re.union  (str.to.re "\x4e34") (re.union  (str.to.re "\x4e35") (re.union  (str.to.re "\x4e36") (re.union  (str.to.re "\x4e37") (re.union  (str.to.re "\x4e38") (re.union  (str.to.re "\x4e39") (re.union  (str.to.re "\x4e3a") (re.union  (str.to.re "\x4e3b") (re.union  (str.to.re "\x4e3c") (re.union  (str.to.re "\x4e3d") (re.union  (str.to.re "\x4e3e") (re.union  (str.to.re "\x4e3f") (re.union  (str.to.re "\x4e40") (re.union  (str.to.re "\x4e41")  (str.to.re "\x4e42")))))))))))))))))))))))))))))))))))))))))))))))))))))))))))))))))) )))
(assert (str.in.re x (re.+  (re.union  (str.to.re "\x4e01") (re.union  (str.to.re "\x4e02") (re.union  (str.to.re "\x4e03") (re.union  (str.to.re "\x4e04") (re.union  (str.to.re "\x4e05") (re.union  (str.to.re "\x4e06") (re.union  (str.to.re "\x4e07") (re.union  (str.to.re "\x4e08") (re.union  (str.to.re "\x4e09") (re.union  (str.to.re "\x4e0a") (re.union  (str.to.re "\x4e0b") (re.union  (str.to.re "\x4e0c") (re.union  (str.to.re "\x4e0d") (re.union  (str.to.re "\x4e0e") (re.union  (str.to.re "\x4e0f") (re.union  (str.to.re "\x4e10") (re.union  (str.to.re "\x4e11") (re.union  (str.to.re "\x4e12") (re.union  (str.to.re "\x4e13") (re.union  (str.to.re "\x4e14") (re.union  (str.to.re "\x4e15") (re.union  (str.to.re "\x4e16") (re.union  (str.to.re "\x4e17") (re.union  (str.to.re "\x4e18") (re.union  (str.to.re "\x4e19") (re.union  (str.to.re "\x4e1a") (re.union  (str.to.re "\x4e1b") (re.union  (str.to.re "\x4e1c") (re.union  (str.to.re "\x4e1d") (re.union  (str.to.re "\x4e1e") (re.union  (str.to.re "\x4e1f") (re.union  (str.to.re "\x4e20") (re.union  (str.to.re "\x4e21") (re.union  (str.to.re "\x4e22") (re.union  (str.to.re "\x4e23") (re.union  (str.to.re "\x4e24") (re.union  (str.to.re "\x4e25") (re.union  (str.to.re "\x4e26") (re.union  (str.to.re "\x4e27") (re.union  (str.to.re "\x4e28") (re.union  (str.to.re "\x4e29") (re.union  (str.to.re "\x4e2a") (re.union  (str.to.re "\x4e2b") (re.union  (str.to.re "\x4e2c") (re.union  (str.to.re "\x4e2d") (re.union  (str.to.re "\x4e2e") (re.union  (str.to.re "\x4e2f") (re.union  (str.to.re "\x4e30") (re.union  (str.to.re "\x4e31") (re.union  (str.to.re "\x4e32") (re.union  (str.to.re "\x4e33") (re.union  (str.to.re "\x4e34") (re.union  (str.to.re "\x4e35") (re.union  (str.to.re "\x4e36") (re.union  (str.to.re "\x4e37") (re.union  (str.to.re "\x4e38") (re.union  (str.to.re "\x4e39") (re.union  (str.to.re "\x4e3a") (re.union  (str.to.re "\x4e3b") (re.union  (str.to.re "\x4e3c") (re.union  (str.to.re "\x4e3d") (re.union  (str.to.re "\x4e3e") (re.union  (str.to.re "\x4e3f") (re.union  (str.to.re "\x4e40") (re.union  (str.to.re "\x4e41") (re.union  (str.to.re "\x4e42") (re.union  (str.to.re "\x4e43") (re.union  (str.to.re "\x4e44") (re.union  (str.to.re "\x4e45") (re.union  (str.to.re "\x4e46") (re.union  (str.to.re "\x4e47") (re.union  (str.to.re "\x4e48") (re.union  (str.to.re "\x4e49") (re.union  (str.to.re "\x4e4a") (re.union  (str.to.re "\x4e4b") (re.union  (str.to.re "\x4e4c") (re.union  (str.to.re "\x4e4d") (re.union  (str.to.re "\x4e4e") (re.union  (str.to.re "\x4e4f") (re.union  (str.to.re "\x4e50") (re.union  (str.to.re "\x4e51") (re.union  (str.to.re "\x4e52") (re.union  (str.to.re "\x4e53") (re.union  (str.to.re "\x4e54") (re.union  (str.to.re "\x4e55") (re.union  (str.to.re "\x4e56") (re.union  (str.to.re "\x4e57") (re.union  (str.to.re "\x4e58") (re.union  (str.to.re "\x4e59") (re.union  (str.to.re "\x4e5a") (re.union  (str.to.re "\x4e5b") (re.union  (str.to.re "\x4e5c") (re.union  (str.to.re "\x4e5d") (re.union  (str.to.re "\x4e5e") (re.union  (str.to.re "\x4e5f") (re.union  (str.to.re "\x4e60") (re.union  (str.to.re "\x4e61") (re.union  (str.to.re "\x4e62") (re.union  (str.to.re "\x4e63") (re.union  (str.to.re "\x4e64") (re.union  (str.to.re "\x4e65") (re.union  (str.to.re "\x4e66") (re.union  (str.to.re "\x4e67") (re.union  (str.to.re "\x4e68") (re.union  (str.to.re "\x4e69") (re.union  (str.to.re "\x4e6a") (re.union  (str.to.re "\x4e6b") (re.union  (str.to.re "\x4e6c") (re.union  (str.to.re "\x4e6d") (re.union  (str.to.re "\x4e6e") (re.union  (str.to.re "\x4e6f") (re.union  (str.to.re "\x4e70") (re.union  (str.to.re "\x4e71") (re.union  (str.to.re "\x4e72") (re.union  (str.to.re "\x4e73") (re.union  (str.to.re "\x4e74") (re.union  (str.to.re "\x4e75") (re.union  (str.to.re "\x4e76") (re.union  (str.to.re "\x4e77") (re.union  (str.to.re "\x4e78") (re.union  (str.to.re "\x4e79") (re.union  (str.to.re "\x4e7a") (re.union  (str.to.re "\x4e7b") (re.union  (str.to.re "\x4e7c") (re.union  (str.to.re "\x4e7d") (re.union  (str.to.re "\x4e7e") (re.union  (str.to.re "\x4e7f") (re.union  (str.to.re "\x4e80") (re.union  (str.to.re "\x4e81") (re.union  (str.to.re "\x4e82") (re.union  (str.to.re "\x4e83") (re.union  (str.to.re "\x4e84") (re.union  (str.to.re "\x4e85") (re.union  (str.to.re "\x4e86") (re.union  (str.to.re "\x4e87") (re.union  (str.to.re "\x4e88") (re.union  (str.to.re "\x4e89") (re.union  (str.to.re "\x4e8a") (re.union  (str.to.re "\x4e8b") (re.union  (str.to.re "\x4e8c") (re.union  (str.to.re "\x4e8d") (re.union  (str.to.re "\x4e8e") (re.union  (str.to.re "\x4e8f") (re.union  (str.to.re "\x4e90") (re.union  (str.to.re "\x4e91") (re.union  (str.to.re "\x4e92") (re.union  (str.to.re "\x4e93") (re.union  (str.to.re "\x4e94") (re.union  (str.to.re "\x4e95") (re.union  (str.to.re "\x4e96") (re.union  (str.to.re "\x4e97") (re.union  (str.to.re "\x4e98") (re.union  (str.to.re "\x4e99") (re.union  (str.to.re "\x4e9a") (re.union  (str.to.re "\x4e9b") (re.union  (str.to.re "\x4e9c") (re.union  (str.to.re "\x4e9d") (re.union  (str.to.re "\x4e9e") (re.union  (str.to.re "\x4e9f") (re.union  (str.to.re "\x4ea0") (re.union  (str.to.re "\x4ea1") (re.union  (str.to.re "\x4ea2") (re.union  (str.to.re "\x4ea3") (re.union  (str.to.re "\x4ea4") (re.union  (str.to.re "\x4ea5") (re.union  (str.to.re "\x4ea6") (re.union  (str.to.re "\x4ea7") (re.union  (str.to.re "\x4ea8") (re.union  (str.to.re "\x4ea9") (re.union  (str.to.re "\x4eaa") (re.union  (str.to.re "\x4eab") (re.union  (str.to.re "\x4eac") (re.union  (str.to.re "\x4ead") (re.union  (str.to.re "\x4eae") (re.union  (str.to.re "\x4eaf") (re.union  (str.to.re "\x4eb0") (re.union  (str.to.re "\x4eb1") (re.union  (str.to.re "\x4eb2") (re.union  (str.to.re "\x4eb3") (re.union  (str.to.re "\x4eb4") (re.union  (str.to.re "\x4eb5") (re.union  (str.to.re "\x4eb6") (re.union  (str.to.re "\x4eb7") (re.union  (str.to.re "\x4eb8") (re.union  (str.to.re "\x4eb9") (re.union  (str.to.re "\x4eba") (re.union  (str.to.re "\x4ebb") (re.union  (str.to.re "\x4ebc") (re.union  (str.to.re "\x4ebd") (re.union  (str.to.re "\x4ebe") (re.union  (str.to.re "\x4ebf") (re.union  (str.to.re "\x4ec0") (re.union  (str.to.re "\x4ec1") (re.union  (str.to.re "\x4ec2") (re.union  (str.to.re "\x4ec3") (re.union  (str.to.re "\x4ec4") (re.union  (str.to.re "\x4ec5") (re.union  (str.to.re "\x4ec6") (re.union  (str.to.re "\x4ec7") (re.union  (str.to.re "\x4ec8") (re.union  (str.to.re "\x4ec9") (re.union  (str.to.re "\x4eca") (re.union  (str.to.re "\x4ecb") (re.union  (str.to.re "\x4ecc") (re.union  (str.to.re "\x4ecd") (re.union  (str.to.re "\x4ece") (re.union  (str.to.re "\x4ecf") (re.union  (str.to.re "\x4ed0") (re.union  (str.to.re "\x4ed1") (re.union  (str.to.re "\x4ed2") (re.union  (str.to.re "\x4ed3") (re.union  (str.to.re "\x4ed4") (re.union  (str.to.re "\x4ed5") (re.union  (str.to.re "\x4ed6") (re.union  (str.to.re "\x4ed7") (re.union  (str.to.re "\x4ed8") (re.union  (str.to.re "\x4ed9") (re.union  (str.to.re "\x4eda") (re.union  (str.to.re "\x4edb") (re.union  (str.to.re "\x4edc") (re.union  (str.to.re "\x4edd") (re.union  (str.to.re "\x4ede") (re.union  (str.to.re "\x4edf") (re.union  (str.to.re "\x4ee0") (re.union  (str.to.re "\x4ee1") (re.union  (str.to.re "\x4ee2") (re.union  (str.to.re "\x4ee3") (re.union  (str.to.re "\x4ee4") (re.union  (str.to.re "\x4ee5") (re.union  (str.to.re "\x4ee6") (re.union  (str.to.re "\x4ee7") (re.union  (str.to.re "\x4ee8") (re.union  (str.to.re "\x4ee9") (re.union  (str.to.re "\x4eea") (re.union  (str.to.re "\x4eeb") (re.union  (str.to.re "\x4eec") (re.union  (str.to.re "\x4eed") (re.union  (str.to.re "\x4eee") (re.union  (str.to.re "\x4eef") (re.union  (str.to.re "\x4ef0") (re.union  (str.to.re "\x4ef1") (re.union  (str.to.re "\x4ef2") (re.union  (str.to.re "\x4ef3") (re.union  (str.to.re "\x4ef4") (re.union  (str.to.re "\x4ef5") (re.union  (str.to.re "\x4ef6") (re.union  (str.to.re "\x4ef7") (re.union  (str.to.re "\x4ef8") (re.union  (str.to.re "\x4ef9") (re.union  (str.to.re "\x4efa") (re.union  (str.to.re "\x4efb") (re.union  (str.to.re "\x4efc") (re.union  (str.to.re "\x4efd") (re.union  (str.to.re "\x4efe") (re.union  (str.to.re "\x4eff") (re.union  (str.to.re "\x4f00") (re.union  (str.to.re "\x4f01") (re.union  (str.to.re "\x4f02") (re.union  (str.to.re "\x4f03") (re.union  (str.to.re "\x4f04") (re.union  (str.to.re "\x4f05") (re.union  (str.to.re "\x4f06") (re.union  (str.to.re "\x4f07") (re.union  (str.to.re "\x4f08") (re.union  (str.to.re "\x4f09") (re.union  (str.to.re "\x4f0a") (re.union  (str.to.re "\x4f0b") (re.union  (str.to.re "\x4f0c") (re.union  (str.to.re "\x4f0d") (re.union  (str.to.re "\x4f0e") (re.union  (str.to.re "\x4f0f") (re.union  (str.to.re "\x4f10") (re.union  (str.to.re "\x4f11") (re.union  (str.to.re "\x4f12") (re.union  (str.to.re "\x4f13") (re.union  (str.to.re "\x4f14") (re.union  (str.to.re "\x4f15") (re.union  (str.to.re "\x4f16") (re.union  (str.to.re "\x4f17") (re.union  (str.to.re "\x4f18") (re.union  (str.to.re "\x4f19") (re.union  (str.to.re "\x4f1a") (re.union  (str.to.re "\x4f1b") (re.union  (str.to.re "\x4f1c") (re.union  (str.to.re "\x4f1d") (re.union  (str.to.re "\x4f1e") (re.union  (str.to.re "\x4f1f") (re.union  (str.to.re "\x4f20") (re.union  (str.to.re "\x4f21") (re.union  (str.to.re "\x4f22") (re.union  (str.to.re "\x4f23") (re.union  (str.to.re "\x4f24") (re.union  (str.to.re "\x4f25") (re.union  (str.to.re "\x4f26") (re.union  (str.to.re "\x4f27") (re.union  (str.to.re "\x4f28") (re.union  (str.to.re "\x4f29") (re.union  (str.to.re "\x4f2a") (re.union  (str.to.re "\x4f2b") (re.union  (str.to.re "\x4f2c") (re.union  (str.to.re "\x4f2d") (re.union  (str.to.re "\x4f2e") (re.union  (str.to.re "\x4f2f") (re.union  (str.to.re "\x4f30") (re.union  (str.to.re "\x4f31") (re.union  (str.to.re "\x4f32") (re.union  (str.to.re "\x4f33") (re.union  (str.to.re "\x4f34") (re.union  (str.to.re "\x4f35") (re.union  (str.to.re "\x4f36") (re.union  (str.to.re "\x4f37") (re.union  (str.to.re "\x4f38") (re.union  (str.to.re "\x4f39") (re.union  (str.to.re "\x4f3a") (re.union  (str.to.re "\x4f3b") (re.union  (str.to.re "\x4f3c") (re.union  (str.to.re "\x4f3d") (re.union  (str.to.re "\x4f3e") (re.union  (str.to.re "\x4f3f") (re.union  (str.to.re "\x4f40") (re.union  (str.to.re "\x4f41") (re.union  (str.to.re "\x4f42") (re.union  (str.to.re "\x4f43") (re.union  (str.to.re "\x4f44") (re.union  (str.to.re "\x4f45") (re.union  (str.to.re "\x4f46") (re.union  (str.to.re "\x4f47") (re.union  (str.to.re "\x4f48") (re.union  (str.to.re "\x4f49") (re.union  (str.to.re "\x4f4a") (re.union  (str.to.re "\x4f4b") (re.union  (str.to.re "\x4f4c") (re.union  (str.to.re "\x4f4d") (re.union  (str.to.re "\x4f4e") (re.union  (str.to.re "\x4f4f") (re.union  (str.to.re "\x4f50") (re.union  (str.to.re "\x4f51") (re.union  (str.to.re "\x4f52") (re.union  (str.to.re "\x4f53") (re.union  (str.to.re "\x4f54") (re.union  (str.to.re "\x4f55") (re.union  (str.to.re "\x4f56") (re.union  (str.to.re "\x4f57") (re.union  (str.to.re "\x4f58") (re.union  (str.to.re "\x4f59") (re.union  (str.to.re "\x4f5a") (re.union  (str.to.re "\x4f5b") (re.union  (str.to.re "\x4f5c") (re.union  (str.to.re "\x4f5d") (re.union  (str.to.re "\x4f5e") (re.union  (str.to.re "\x4f5f") (re.union  (str.to.re "\x4f60") (re.union  (str.to.re "\x4f61") (re.union  (str.to.re "\x4f62") (re.union  (str.to.re "\x4f63") (re.union  (str.to.re "\x4f64") (re.union  (str.to.re "\x4f65") (re.union  (str.to.re "\x4f66") (re.union  (str.to.re "\x4f67") (re.union  (str.to.re "\x4f68") (re.union  (str.to.re "\x4f69") (re.union  (str.to.re "\x4f6a") (re.union  (str.to.re "\x4f6b") (re.union  (str.to.re "\x4f6c") (re.union  (str.to.re "\x4f6d") (re.union  (str.to.re "\x4f6e") (re.union  (str.to.re "\x4f6f") (re.union  (str.to.re "\x4f70") (re.union  (str.to.re "\x4f71") (re.union  (str.to.re "\x4f72") (re.union  (str.to.re "\x4f73") (re.union  (str.to.re "\x4f74") (re.union  (str.to.re "\x4f75") (re.union  (str.to.re "\x4f76") (re.union  (str.to.re "\x4f77") (re.union  (str.to.re "\x4f78") (re.union  (str.to.re "\x4f79") (re.union  (str.to.re "\x4f7a") (re.union  (str.to.re "\x4f7b") (re.union  (str.to.re "\x4f7c") (re.union  (str.to.re "\x4f7d") (re.union  (str.to.re "\x4f7e") (re.union  (str.to.re "\x4f7f") (re.union  (str.to.re "\x4f80") (re.union  (str.to.re "\x4f81") (re.union  (str.to.re "\x4f82") (re.union  (str.to.re "\x4f83") (re.union  (str.to.re "\x4f84") (re.union  (str.to.re "\x4f85") (re.union  (str.to.re "\x4f86") (re.union  (str.to.re "\x4f87") (re.union  (str.to.re "\x4f88") (re.union  (str.to.re "\x4f89") (re.union  (str.to.re "\x4f8a") (re.union  (str.to.re "\x4f8b") (re.union  (str.to.re "\x4f8c") (re.union  (str.to.re "\x4f8d") (re.union  (str.to.re "\x4f8e") (re.union  (str.to.re "\x4f8f") (re.union  (str.to.re "\x4f90") (re.union  (str.to.re "\x4f91") (re.union  (str.to.re "\x4f92") (re.union  (str.to.re "\x4f93") (re.union  (str.to.re "\x4f94") (re.union  (str.to.re "\x4f95") (re.union  (str.to.re "\x4f96") (re.union  (str.to.re "\x4f97") (re.union  (str.to.re "\x4f98") (re.union  (str.to.re "\x4f99") (re.union  (str.to.re "\x4f9a") (re.union  (str.to.re "\x4f9b") (re.union  (str.to.re "\x4f9c") (re.union  (str.to.re "\x4f9d") (re.union  (str.to.re "\x4f9e") (re.union  (str.to.re "\x4f9f") (re.union  (str.to.re "\x4fa0") (re.union  (str.to.re "\x4fa1") (re.union  (str.to.re "\x4fa2") (re.union  (str.to.re "\x4fa3") (re.union  (str.to.re "\x4fa4") (re.union  (str.to.re "\x4fa5") (re.union  (str.to.re "\x4fa6") (re.union  (str.to.re "\x4fa7") (re.union  (str.to.re "\x4fa8") (re.union  (str.to.re "\x4fa9") (re.union  (str.to.re "\x4faa") (re.union  (str.to.re "\x4fab") (re.union  (str.to.re "\x4fac") (re.union  (str.to.re "\x4fad") (re.union  (str.to.re "\x4fae") (re.union  (str.to.re "\x4faf") (re.union  (str.to.re "\x4fb0") (re.union  (str.to.re "\x4fb1") (re.union  (str.to.re "\x4fb2") (re.union  (str.to.re "\x4fb3") (re.union  (str.to.re "\x4fb4") (re.union  (str.to.re "\x4fb5") (re.union  (str.to.re "\x4fb6") (re.union  (str.to.re "\x4fb7") (re.union  (str.to.re "\x4fb8") (re.union  (str.to.re "\x4fb9") (re.union  (str.to.re "\x4fba") (re.union  (str.to.re "\x4fbb") (re.union  (str.to.re "\x4fbc") (re.union  (str.to.re "\x4fbd") (re.union  (str.to.re "\x4fbe") (re.union  (str.to.re "\x4fbf") (re.union  (str.to.re "\x4fc0") (re.union  (str.to.re "\x4fc1") (re.union  (str.to.re "\x4fc2") (re.union  (str.to.re "\x4fc3") (re.union  (str.to.re "\x4fc4") (re.union  (str.to.re "\x4fc5") (re.union  (str.to.re "\x4fc6") (re.union  (str.to.re "\x4fc7") (re.union  (str.to.re "\x4fc8") (re.union  (str.to.re "\x4fc9") (re.union  (str.to.re "\x4fca") (re.union  (str.to.re "\x4fcb") (re.union  (str.to.re "\x4fcc") (re.union  (str.to.re "\x4fcd") (re.union  (str.to.re "\x4fce") (re.union  (str.to.re "\x4fcf") (re.union  (str.to.re "\x4fd0") (re.union  (str.to.re "\x4fd1") (re.union  (str.to.re "\x4fd2") (re.union  (str.to.re "\x4fd3") (re.union  (str.to.re "\x4fd4") (re.union  (str.to.re "\x4fd5") (re.union  (str.to.re "\x4fd6") (re.union  (str.to.re "\x4fd7") (re.union  (str.to.re "\x4fd8") (re.union  (str.to.re "\x4fd9") (re.union  (str.to.re "\x4fda") (re.union  (str.to.re "\x4fdb") (re.union  (str.to.re "\x4fdc") (re.union  (str.to.re "\x4fdd") (re.union  (str.to.re "\x4fde") (re.union  (str.to.re "\x4fdf") (re.union  (str.to.re "\x4fe0") (re.union  (str.to.re "\x4fe1") (re.union  (str.to.re "\x4fe2") (re.union  (str.to.re "\x4fe3") (re.union  (str.to.re "\x4fe4") (re.union  (str.to.re "\x4fe5") (re.union  (str.to.re "\x4fe6") (re.union  (str.to.re "\x4fe7") (re.union  (str.to.re "\x4fe8") (re.union  (str.to.re "\x4fe9") (re.union  (str.to.re "\x4fea") (re.union  (str.to.re "\x4feb") (re.union  (str.to.re "\x4fec") (re.union  (str.to.re "\x4fed") (re.union  (str.to.re "\x4fee") (re.union  (str.to.re "\x4fef") (re.union  (str.to.re "\x4ff0") (re.union  (str.to.re "\x4ff1") (re.union  (str.to.re "\x4ff2") (re.union  (str.to.re "\x4ff3") (re.union  (str.to.re "\x4ff4") (re.union  (str.to.re "\x4ff5") (re.union  (str.to.re "\x4ff6") (re.union  (str.to.re "\x4ff7") (re.union  (str.to.re "\x4ff8") (re.union  (str.to.re "\x4ff9") (re.union  (str.to.re "\x4ffa") (re.union  (str.to.re "\x4ffb") (re.union  (str.to.re "\x4ffc") (re.union  (str.to.re "\x4ffd") (re.union  (str.to.re "\x4ffe") (re.union  (str.to.re "\x4fff") (re.union  (str.to.re "\x5000") (re.union  (str.to.re "\x5001") (re.union  (str.to.re "\x5002") (re.union  (str.to.re "\x5003") (re.union  (str.to.re "\x5004") (re.union  (str.to.re "\x5005") (re.union  (str.to.re "\x5006") (re.union  (str.to.re "\x5007") (re.union  (str.to.re "\x5008") (re.union  (str.to.re "\x5009") (re.union  (str.to.re "\x500a") (re.union  (str.to.re "\x500b") (re.union  (str.to.re "\x500c") (re.union  (str.to.re "\x500d") (re.union  (str.to.re "\x500e") (re.union  (str.to.re "\x500f") (re.union  (str.to.re "\x5010") (re.union  (str.to.re "\x5011") (re.union  (str.to.re "\x5012") (re.union  (str.to.re "\x5013") (re.union  (str.to.re "\x5014") (re.union  (str.to.re "\x5015") (re.union  (str.to.re "\x5016") (re.union  (str.to.re "\x5017") (re.union  (str.to.re "\x5018") (re.union  (str.to.re "\x5019") (re.union  (str.to.re "\x501a") (re.union  (str.to.re "\x501b") (re.union  (str.to.re "\x501c") (re.union  (str.to.re "\x501d") (re.union  (str.to.re "\x501e") (re.union  (str.to.re "\x501f") (re.union  (str.to.re "\x5020") (re.union  (str.to.re "\x5021") (re.union  (str.to.re "\x5022") (re.union  (str.to.re "\x5023") (re.union  (str.to.re "\x5024") (re.union  (str.to.re "\x5025") (re.union  (str.to.re "\x5026") (re.union  (str.to.re "\x5027") (re.union  (str.to.re "\x5028") (re.union  (str.to.re "\x5029") (re.union  (str.to.re "\x502a") (re.union  (str.to.re "\x502b") (re.union  (str.to.re "\x502c") (re.union  (str.to.re "\x502d") (re.union  (str.to.re "\x502e") (re.union  (str.to.re "\x502f") (re.union  (str.to.re "\x5030") (re.union  (str.to.re "\x5031") (re.union  (str.to.re "\x5032") (re.union  (str.to.re "\x5033") (re.union  (str.to.re "\x5034") (re.union  (str.to.re "\x5035") (re.union  (str.to.re "\x5036") (re.union  (str.to.re "\x5037") (re.union  (str.to.re "\x5038") (re.union  (str.to.re "\x5039") (re.union  (str.to.re "\x503a") (re.union  (str.to.re "\x503b") (re.union  (str.to.re "\x503c") (re.union  (str.to.re "\x503d") (re.union  (str.to.re "\x503e") (re.union  (str.to.re "\x503f") (re.union  (str.to.re "\x5040") (re.union  (str.to.re "\x5041") (re.union  (str.to.re "\x5042") (re.union  (str.to.re "\x5043") (re.union  (str.to.re "\x5044") (re.union  (str.to.re "\x5045") (re.union  (str.to.re "\x5046") (re.union  (str.to.re "\x5047") (re.union  (str.to.re "\x5048") (re.union  (str.to.re "\x5049") (re.union  (str.to.re "\x504a") (re.union  (str.to.re "\x504b") (re.union  (str.to.re "\x504c") (re.union  (str.to.re "\x504d") (re.union  (str.to.re "\x504e") (re.union  (str.to.re "\x504f") (re.union  (str.to.re "\x5050") (re.union  (str.to.re "\x5051") (re.union  (str.to.re "\x5052") (re.union  (str.to.re "\x5053") (re.union  (str.to.re "\x5054") (re.union  (str.to.re "\x5055") (re.union  (str.to.re "\x5056") (re.union  (str.to.re "\x5057") (re.union  (str.to.re "\x5058") (re.union  (str.to.re "\x5059") (re.union  (str.to.re "\x505a") (re.union  (str.to.re "\x505b") (re.union  (str.to.re "\x505c") (re.union  (str.to.re "\x505d") (re.union  (str.to.re "\x505e") (re.union  (str.to.re "\x505f") (re.union  (str.to.re "\x5060") (re.union  (str.to.re "\x5061") (re.union  (str.to.re "\x5062") (re.union  (str.to.re "\x5063") (re.union  (str.to.re "\x5064") (re.union  (str.to.re "\x5065") (re.union  (str.to.re "\x5066") (re.union  (str.to.re "\x5067") (re.union  (str.to.re "\x5068") (re.union  (str.to.re "\x5069") (re.union  (str.to.re "\x506a") (re.union  (str.to.re "\x506b") (re.union  (str.to.re "\x506c") (re.union  (str.to.re "\x506d") (re.union  (str.to.re "\x506e") (re.union  (str.to.re "\x506f") (re.union  (str.to.re "\x5070") (re.union  (str.to.re "\x5071") (re.union  (str.to.re "\x5072") (re.union  (str.to.re "\x5073") (re.union  (str.to.re "\x5074") (re.union  (str.to.re "\x5075") (re.union  (str.to.re "\x5076") (re.union  (str.to.re "\x5077") (re.union  (str.to.re "\x5078") (re.union  (str.to.re "\x5079") (re.union  (str.to.re "\x507a") (re.union  (str.to.re "\x507b") (re.union  (str.to.re "\x507c") (re.union  (str.to.re "\x507d") (re.union  (str.to.re "\x507e") (re.union  (str.to.re "\x507f") (re.union  (str.to.re "\x5080") (re.union  (str.to.re "\x5081") (re.union  (str.to.re "\x5082") (re.union  (str.to.re "\x5083") (re.union  (str.to.re "\x5084") (re.union  (str.to.re "\x5085") (re.union  (str.to.re "\x5086") (re.union  (str.to.re "\x5087") (re.union  (str.to.re "\x5088") (re.union  (str.to.re "\x5089") (re.union  (str.to.re "\x508a") (re.union  (str.to.re "\x508b") (re.union  (str.to.re "\x508c") (re.union  (str.to.re "\x508d") (re.union  (str.to.re "\x508e") (re.union  (str.to.re "\x508f") (re.union  (str.to.re "\x5090") (re.union  (str.to.re "\x5091") (re.union  (str.to.re "\x5092") (re.union  (str.to.re "\x5093")  (str.to.re "\x5094")))))))))))))))))))))))))))))))))))))))))))))))))))))))))))))))))))))))))))))))))))))))))))))))))))))))))))))))))))))))))))))))))))))))))))))))))))))))))))))))))))))))))))))))))))))))))))))))))))))))))))))))))))))))))))))))))))))))))))))))))))))))))))))))))))))))))))))))))))))))))))))))))))))))))))))))))))))))))))))))))))))))))))))))))))))))))))))))))))))))))))))))))))))))))))))))))))))))))))))))))))))))))))))))))))))))))))))))))))))))))))))))))))))))))))))))))))))))))))))))))))))))))))))))))))))))))))))))))))))))))))))))))))))))))))))))))))))))))))))))))))))))))))))))))))))))))))))))))))))))))))))))))))))))))))))))))))))))))))))))))))))))))))))))))))) )))
(check-sat)
(get-model)