zaligvinder/models/SRE/data52/337.txt
((e-0|b-1.a-2.g-3)|(@|j-4.(@.(g-5|b-6))*).b-7).(@.((b-8|g-9.h-10.a-11)|i-12.f-13.d-14).(@.(@|((j-15|b-16)|g-17.i-18)))*.a-19.c-20.((g-21.(g-22|j-23)|a-24).a-25|a-26)|(((@|((@|(h-27.h-28)*)|g-29))|(@.(@|d-30.j-31)|i-32.j-33)))*)
(((@|g-0.e-1)|((@|(@|(i-2|g-3))))*).((j-4.b-5.h-6|j-7)|((g-8.i-9|(h-10|b-11))|i-12).h-13.(e-14|j-15)).((@|a-16.e-17).c-18|@.(@|(@|(@|(@|(e-19|a-20)))))).c-21.(((@|(@|(j-22|(i-23|c-24))).b-25)|h-26).((((h-27|b-28))*|h-29)|(@|(h-30|(@|(@|d-31.h-32)).(d-33|g-34))))|((j-35|d-36.(h-37|c-38).(e-39.i-40)*.h-41.(j-42|g-43).b-44.b-45.(@|((b-46|i-47))*).(@|(@|@.(@|(@|b-48.e-49)))))|((((@.(j-50|h-51).i-52|(f-53|f-54))|@.(@|(@|b-55.i-56)))|(@|g-57.f-58).i-59.j-60.g-61)|(d-62.i-63.i-64.(@|g-65.b-66).(f-67|f-68).d-69)*)))|(((((@|d-70.j-71.j-72)|(((((h-73|a-74.f-75))*.h-76|e-77).a-78.g-79.i-80.i-81.g-82|a-83))*)|((b-84|(d-85|g-86).f-87.(@|f-88.(@|((@|((@|b-89.b-90))*))*)))|@.(j-91|(@|@.((@|(@|f-92.a-93)))*).(g-94|(a-95.h-96)*)).c-97.((@|@.(g-98.a-99|e-100))|f-101).f-102.f-103))|(((i-104.(@|(e-105|j-106))|(@|(b-107.b-108|(h-109|d-110.c-111))).(@|i-112.b-113)))*|((f-114|(@|((@|(e-115|f-116.((d-117|(@|((@.(@|(c-118|d-119)))*)*.j-120)))*.(b-121|d-122.f-123)))|e-124))).((j-125|j-126.f-127.(e-128|(c-129|@.(@|@.(g-130|e-131)))).((((@|((@|(@|(@|((j-132|f-133))*))))*)|b-134))*|d-135.((e-136|@.(i-137|@.(f-138|j-139))))*.(c-140.d-141|c-142).h-143.j-144).(c-145.(c-146|@.(@|(i-147.(@|a-148.i-149)|(@|g-150.c-151).(@|(@|@.(@|i-152.c-153))).e-154)))|d-155.f-156.(@|((i-157|g-158)|b-159.e-160)).e-161))|(b-162.(@|(((@|(@.(@|a-163.e-164)|e-165))|i-166)|b-167))|e-168).(@.(@|(e-169.d-170)*).i-171.f-172|@.((@|j-173.f-174)|b-175).(@|@.(@|d-176.i-177))))|d-178.i-179.(@|(a-180.j-181|c-182)).d-183.(((i-184.f-185|i-186)|d-187).(@|@.(@|(i-188.d-189)*).i-190).(g-191|a-192).d-193)*.(@.((i-194|@.((g-195|g-196))*).f-197.c-198)*)*.e-199.h-200.f-201.((@|b-202.f-203.a-204)|d-205).i-206.i-207)))|(((@|(e-208.((((@|(@|(c-209|c-210).(a-211|e-212)))|(a-213|f-214))|(@|d-215.a-216.a-217)))*.h-218.f-219.(g-220|f-221.h-222)|(((@.(d-223|e-224)|(e-225|(g-226.d-227|g-228))))*)*)).(@|d-229.i-230).((d-231|i-232)|(c-233|h-234).(i-235|e-236.h-237)).f-238.(@.(d-239.(f-240|b-241.b-242)|@.(@|@.(@|a-243.b-244)))|(((@|(d-245.(a-246|j-247.b-248)|c-249))|a-250)|(i-251|j-252))).(f-253|((@|((@|(@|a-254.g-255)))*))*).c-256.(i-257.(@|@.(@|((@|(@|d-258.e-259)))*)).j-260.j-261|(b-262.(@|a-263.f-264)|a-265)).((((@|(a-266.e-267.(@|(f-268|g-269))|(((((i-270|e-271))*|e-272).e-273.(i-274|(h-275.i-276)*.(@|j-277.f-278)).(c-279.(@|(b-280|i-281)).(a-282|e-283)|(@|j-284.f-285)))*)*))|((i-286|h-287)|(@|@.(@|h-288.f-289))).b-290.b-291.(@|(d-292|d-293)))|c-294))*.(@|b-295.(d-296|c-297)))*.((((h-298|(@|(@|@.(@|(@|f-299.a-300)))))|(@|@.(d-301|g-302)))|j-303.g-304.d-305.(@|(@|(((g-306|i-307))*|d-308))))|a-309).(@|(e-310|i-311)).(@.(@|g-312.f-313)|j-314).(@.((@|(@|((h-315|a-316))*)).((@|j-317.i-318)|b-319))*|h-320).(((@|@.((g-321|@.(@|(d-322|i-323))))*)|(@|(@|@.(c-324|e-325)))).f-326.i-327)*.(d-328|@.(d-329.h-330)*).(h-331|(@|((@|@.(@|(@|c-332.g-333))))*)).c-334.c-335.c-336|e-337.(i-338|h-339).h-340.(@|@.(d-341.h-342)*).j-343.((@|(((@|i-344.j-345.g-346).((e-347|g-348))*.h-349|f-350)|f-351))|((@|@.(@.(@|a-352.a-353))*))*).c-354.(e-355|d-356).(f-357.b-358|((c-359|f-360)|d-361.b-362)))))
